instances/knapsack/discrete_knapsack_uncertainty/knapsack_80_13.lp
\ Model knapsack_80_13
\ LP format - for model browsing. Use MPS format to capture full model detail.
\ Signature: 0xf86d0bbf74a39a5e
Minimize
  - 25 x[0] - 9 x[1] - 15 x[2] - 63 x[3] - 48 x[4] - 84 x[5] - 24 x[6]
   - 34 x[7] - 37 x[8] - 45 x[9] - 10 x[10] - 46 x[11] - 82 x[12]
   - 13 x[13] - 46 x[14] - 79 x[15] - 21 x[16] - 73 x[17] - 45 x[18]
   - 76 x[19] - 48 x[20] - 70 x[21] - 3 x[22] - 43 x[23] - 88 x[24]
   - 21 x[25] - 67 x[26] - 78 x[27] - 37 x[28] - 87 x[29] - 32 x[30]
   - 63 x[31] - 87 x[32] - 34 x[33] - 58 x[34] - 28 x[35] - 36 x[36]
   - 34 x[37] - 53 x[38] - 18 x[39] - 31 x[40] - 64 x[41] - 84 x[42]
   - 50 x[43] - 29 x[44] - 30 x[45] - 7 x[46] - 3 x[47] - 99 x[48]
   - 60 x[49] - 38 x[50] - 89 x[51] - 2 x[52] - 44 x[53] - 95 x[54]
   - 57 x[55] - 25 x[56] - 87 x[57] - 63 x[58] - 86 x[59] - 35 x[60]
   - 49 x[61] - 24 x[62] - 32 x[63] - 17 x[64] - 16 x[65] - 96 x[66]
   - 4 x[67] - 87 x[68] - 88 x[69] - 92 x[70] - 78 x[71] - 24 x[72]
   - 68 x[73] - 29 x[74] - 81 x[75] - 53 x[76] - 68 x[77] - 47 x[78]
   - 78 x[79]
Subject To
 primal_upper: 88 x[0] + 77 x[1] + 19 x[2] + 60 x[3] + 41 x[4] + 26 x[5]
   + 10 x[6] + 48 x[7] + 94 x[8] + 99 x[9] + 88 x[10] + 16 x[11] + 65 x[12]
   + 21 x[13] + 13 x[14] + 57 x[15] + 42 x[16] + x[17] + 46 x[18]
   + 55 x[19] + 42 x[20] + 92 x[21] + 53 x[22] + 55 x[23] + 49 x[24]
   + 89 x[25] + 59 x[26] + 96 x[27] + 70 x[28] + 12 x[29] + 58 x[30]
   + 32 x[31] + 96 x[32] + 90 x[33] + 73 x[34] + 70 x[35] + 25 x[36]
   + 61 x[37] + 29 x[38] + 95 x[39] + 8 x[40] + 98 x[41] + 51 x[42]
   + 18 x[43] + 16 x[44] + 19 x[45] + 22 x[46] + 54 x[47] + 12 x[48]
   + 45 x[49] + 95 x[50] + 93 x[51] + 70 x[52] + 13 x[53] + 85 x[54]
   + 56 x[55] + 54 x[56] + 87 x[57] + 21 x[58] + 35 x[59] + 21 x[60]
   + 15 x[61] + 92 x[62] + 19 x[63] + 56 x[64] + 53 x[65] + 69 x[66]
   + 23 x[67] + 85 x[68] + 62 x[69] + 14 x[70] + 42 x[71] + 59 x[72]
   + 72 x[73] + 20 x[74] + 97 x[75] + 3 x[76] + 24 x[77] + 13 x[78]
   + 99 x[79] + 8.8 r[0] + 7.7 r[1] + 1.9 r[2] + 6 r[3] + 4.1 r[4]
   + 2.6 r[5] + r[6] + 4.8 r[7] + 9.4 r[8] + 9.9 r[9] + 8.8 r[10]
   + 1.6 r[11] + 6.5 r[12] + 2.1 r[13] + 1.3 r[14] + 5.7 r[15] + 4.2 r[16]
   + 0.1 r[17] + 4.6 r[18] + 5.5 r[19] + 4.2 r[20] + 9.2 r[21] + 5.3 r[22]
   + 5.5 r[23] + 4.9 r[24] + 8.9 r[25] + 5.9 r[26] + 9.6 r[27] + 7 r[28]
   + 1.2 r[29] + 5.8 r[30] + 3.2 r[31] + 9.6 r[32] + 9 r[33] + 7.3 r[34]
   + 7 r[35] + 2.5 r[36] + 6.1 r[37] + 2.9 r[38] + 9.5 r[39] + 0.8 r[40]
   + 9.8 r[41] + 5.1 r[42] + 1.8 r[43] + 1.6 r[44] + 1.9 r[45] + 2.2 r[46]
   + 5.4 r[47] + 1.2 r[48] + 4.5 r[49] + 9.5 r[50] + 9.3 r[51] + 7 r[52]
   + 1.3 r[53] + 8.5 r[54] + 5.6 r[55] + 5.4 r[56] + 8.7 r[57] + 2.1 r[58]
   + 3.5 r[59] + 2.1 r[60] + 1.5 r[61] + 9.2 r[62] + 1.9 r[63] + 5.6 r[64]
   + 5.3 r[65] + 6.9 r[66] + 2.3 r[67] + 8.5 r[68] + 6.2 r[69] + 1.4 r[70]
   + 4.2 r[71] + 5.9 r[72] + 7.2 r[73] + 2 r[74] + 9.7 r[75] + 0.3 r[76]
   + 2.4 r[77] + 1.3 r[78] + 9.9 r[79] <= 390
 primal_lower: 1.065579664727924 x[0] + 1.063806572914905 x[1]
   + 4.40515444240221 x[2] + 1.048489694844513 x[3]
   + 5.006373971404091 x[4] + 3.612900749806626 x[5]
   + 0.9817683263505832 x[6] + 2.90715660988286 x[7]
   + 3.061542773541496 x[8] + 2.107648568266077 x[9]
   + 4.62755245461535 x[10] + 4.622789091707007 x[11]
   + 2.985489544099533 x[12] + 2.88481002566865 x[13]
   + 0.4501084856223512 x[14] + 5.428010556774811 x[15]
   + 2.123379354093349 x[16] + 0.2380092988143883 x[17]
   + 2.419934653359231 x[18] + 1.970843381714216 x[19]
   + 1.261521319586327 x[20] + 4.397321890269968 x[21]
   + 2.146861631795601 x[22] + 1.713783094254714 x[23]
   + 4.007238882018884 x[24] + 1.698353716507279 x[25]
   + 2.033822534916446 x[26] + 2.597043048216502 x[27]
   + 3.684927416973443 x[28] + 0.2550359789156431 x[29]
   + 4.920723558651444 x[30] + 4.610445846812999 x[31]
   + 5.354305647461799 x[32] + 1.95238185566728 x[33]
   + 0.0596838536280608 x[34] + 1.946721377140558 x[35]
   + 0.0747778008714852 x[36] + 0.5503498595401789 x[37]
   + 0.548031923139106 x[38] + 0.1433910958717126 x[39]
   + 5.170143360657188 x[40] + 1.274919919514836 x[41]
   + 5.40342031015713 x[42] + 2.051311253707299 x[43]
   + 2.44296673310665 x[44] + 3.916668789496688 x[45]
   + 5.28683356471069 x[46] + 5.39004776098296 x[47]
   + 0.6792435952411781 x[48] + 4.266211515183004 x[49]
   + 4.736944934620729 x[50] + 1.791448059162424 x[51]
   + 3.903723383025676 x[52] + 0.5856421841798379 x[53]
   + 2.594218686269239 x[54] + 5.412784895712832 x[55]
   + 2.509035946694178 x[56] + 3.265226929890134 x[57]
   + 1.083431404677942 x[58] + 5.247438074114902 x[59]
   + 5.010189321964507 x[60] + 4.495045409425972 x[61]
   + 3.681298308563251 x[62] + 4.239691231756511 x[63]
   + 0.5305200165620435 x[64] + 1.468702715392379 x[65]
   + 1.330213490404682 x[66] + 3.575771679277681 x[67]
   + 3.764601594045926 x[68] + 0.1658282789345039 x[69]
   + 3.998255872166773 x[70] + 4.301141314404537 x[71]
   + 3.440157417000418 x[72] + 4.209237764859067 x[73]
   + 0.7314045919878333 x[74] + 3.684902335469311 x[75]
   + 3.345020081676341 x[76] + 2.657166638432879 x[77]
   + 4.987680716091073 x[78] + 4.10587349622734 x[79] + 29 u[0] + 74 u[1]
   + 24 u[2] + 37 u[3] + 54 u[4] + 43 u[5] + 79 u[6] + 21 u[7] + 71 u[8]
   + 68 u[9] + 89 u[10] + 73 u[11] + 34 u[12] + 78 u[13] + 90 u[14]
   + 50 u[15] + 71 u[16] + 50 u[17] + 55 u[18] + 32 u[19] + 63 u[20]
   + 93 u[21] + 98 u[22] + 64 u[23] + 86 u[24] + 54 u[25] + 68 u[26]
   + 53 u[27] + 67 u[28] + 89 u[29] + 39 u[30] + 37 u[31] + 13 u[32]
   + 15 u[33] + 70 u[34] + 83 u[35] + 74 u[36] + 6 u[37] + 98 u[38]
   + 92 u[39] + 81 u[40] + 35 u[41] + 32 u[42] + 43 u[43] + 37 u[44]
   + 84 u[45] + 95 u[46] + 87 u[47] + 9 u[48] + 38 u[49] + 76 u[50]
   + 90 u[51] + 15 u[52] + 66 u[53] + 10 u[54] + 13 u[55] + 59 u[56]
   + 12 u[57] + 82 u[58] + 80 u[59] + 62 u[60] + 84 u[61] + 57 u[62]
   + 84 u[63] + 53 u[64] + 54 u[65] + 2 u[66] + 76 u[67] + 70 u[68]
   + 59 u[69] + 99 u[70] + 23 u[71] + 60 u[72] + 61 u[73] + 69 u[74]
   + 26 u[75] + 92 u[76] + 73 u[77] + 18 u[78] + 48 u[79] <= 48609
 mccormick1[0]: - u[0] + r[0] <= 0
 mccormick1[1]: - u[1] + r[1] <= 0
 mccormick1[2]: - u[2] + r[2] <= 0
 mccormick1[3]: - u[3] + r[3] <= 0
 mccormick1[4]: - u[4] + r[4] <= 0
 mccormick1[5]: - u[5] + r[5] <= 0
 mccormick1[6]: - u[6] + r[6] <= 0
 mccormick1[7]: - u[7] + r[7] <= 0
 mccormick1[8]: - u[8] + r[8] <= 0
 mccormick1[9]: - u[9] + r[9] <= 0
 mccormick1[10]: - u[10] + r[10] <= 0
 mccormick1[11]: - u[11] + r[11] <= 0
 mccormick1[12]: - u[12] + r[12] <= 0
 mccormick1[13]: - u[13] + r[13] <= 0
 mccormick1[14]: - u[14] + r[14] <= 0
 mccormick1[15]: - u[15] + r[15] <= 0
 mccormick1[16]: - u[16] + r[16] <= 0
 mccormick1[17]: - u[17] + r[17] <= 0
 mccormick1[18]: - u[18] + r[18] <= 0
 mccormick1[19]: - u[19] + r[19] <= 0
 mccormick1[20]: - u[20] + r[20] <= 0
 mccormick1[21]: - u[21] + r[21] <= 0
 mccormick1[22]: - u[22] + r[22] <= 0
 mccormick1[23]: - u[23] + r[23] <= 0
 mccormick1[24]: - u[24] + r[24] <= 0
 mccormick1[25]: - u[25] + r[25] <= 0
 mccormick1[26]: - u[26] + r[26] <= 0
 mccormick1[27]: - u[27] + r[27] <= 0
 mccormick1[28]: - u[28] + r[28] <= 0
 mccormick1[29]: - u[29] + r[29] <= 0
 mccormick1[30]: - u[30] + r[30] <= 0
 mccormick1[31]: - u[31] + r[31] <= 0
 mccormick1[32]: - u[32] + r[32] <= 0
 mccormick1[33]: - u[33] + r[33] <= 0
 mccormick1[34]: - u[34] + r[34] <= 0
 mccormick1[35]: - u[35] + r[35] <= 0
 mccormick1[36]: - u[36] + r[36] <= 0
 mccormick1[37]: - u[37] + r[37] <= 0
 mccormick1[38]: - u[38] + r[38] <= 0
 mccormick1[39]: - u[39] + r[39] <= 0
 mccormick1[40]: - u[40] + r[40] <= 0
 mccormick1[41]: - u[41] + r[41] <= 0
 mccormick1[42]: - u[42] + r[42] <= 0
 mccormick1[43]: - u[43] + r[43] <= 0
 mccormick1[44]: - u[44] + r[44] <= 0
 mccormick1[45]: - u[45] + r[45] <= 0
 mccormick1[46]: - u[46] + r[46] <= 0
 mccormick1[47]: - u[47] + r[47] <= 0
 mccormick1[48]: - u[48] + r[48] <= 0
 mccormick1[49]: - u[49] + r[49] <= 0
 mccormick1[50]: - u[50] + r[50] <= 0
 mccormick1[51]: - u[51] + r[51] <= 0
 mccormick1[52]: - u[52] + r[52] <= 0
 mccormick1[53]: - u[53] + r[53] <= 0
 mccormick1[54]: - u[54] + r[54] <= 0
 mccormick1[55]: - u[55] + r[55] <= 0
 mccormick1[56]: - u[56] + r[56] <= 0
 mccormick1[57]: - u[57] + r[57] <= 0
 mccormick1[58]: - u[58] + r[58] <= 0
 mccormick1[59]: - u[59] + r[59] <= 0
 mccormick1[60]: - u[60] + r[60] <= 0
 mccormick1[61]: - u[61] + r[61] <= 0
 mccormick1[62]: - u[62] + r[62] <= 0
 mccormick1[63]: - u[63] + r[63] <= 0
 mccormick1[64]: - u[64] + r[64] <= 0
 mccormick1[65]: - u[65] + r[65] <= 0
 mccormick1[66]: - u[66] + r[66] <= 0
 mccormick1[67]: - u[67] + r[67] <= 0
 mccormick1[68]: - u[68] + r[68] <= 0
 mccormick1[69]: - u[69] + r[69] <= 0
 mccormick1[70]: - u[70] + r[70] <= 0
 mccormick1[71]: - u[71] + r[71] <= 0
 mccormick1[72]: - u[72] + r[72] <= 0
 mccormick1[73]: - u[73] + r[73] <= 0
 mccormick1[74]: - u[74] + r[74] <= 0
 mccormick1[75]: - u[75] + r[75] <= 0
 mccormick1[76]: - u[76] + r[76] <= 0
 mccormick1[77]: - u[77] + r[77] <= 0
 mccormick1[78]: - u[78] + r[78] <= 0
 mccormick1[79]: - u[79] + r[79] <= 0
 mccormick2[0]: - x[0] + r[0] <= 0
 mccormick2[1]: - x[1] + r[1] <= 0
 mccormick2[2]: - x[2] + r[2] <= 0
 mccormick2[3]: - x[3] + r[3] <= 0
 mccormick2[4]: - x[4] + r[4] <= 0
 mccormick2[5]: - x[5] + r[5] <= 0
 mccormick2[6]: - x[6] + r[6] <= 0
 mccormick2[7]: - x[7] + r[7] <= 0
 mccormick2[8]: - x[8] + r[8] <= 0
 mccormick2[9]: - x[9] + r[9] <= 0
 mccormick2[10]: - x[10] + r[10] <= 0
 mccormick2[11]: - x[11] + r[11] <= 0
 mccormick2[12]: - x[12] + r[12] <= 0
 mccormick2[13]: - x[13] + r[13] <= 0
 mccormick2[14]: - x[14] + r[14] <= 0
 mccormick2[15]: - x[15] + r[15] <= 0
 mccormick2[16]: - x[16] + r[16] <= 0
 mccormick2[17]: - x[17] + r[17] <= 0
 mccormick2[18]: - x[18] + r[18] <= 0
 mccormick2[19]: - x[19] + r[19] <= 0
 mccormick2[20]: - x[20] + r[20] <= 0
 mccormick2[21]: - x[21] + r[21] <= 0
 mccormick2[22]: - x[22] + r[22] <= 0
 mccormick2[23]: - x[23] + r[23] <= 0
 mccormick2[24]: - x[24] + r[24] <= 0
 mccormick2[25]: - x[25] + r[25] <= 0
 mccormick2[26]: - x[26] + r[26] <= 0
 mccormick2[27]: - x[27] + r[27] <= 0
 mccormick2[28]: - x[28] + r[28] <= 0
 mccormick2[29]: - x[29] + r[29] <= 0
 mccormick2[30]: - x[30] + r[30] <= 0
 mccormick2[31]: - x[31] + r[31] <= 0
 mccormick2[32]: - x[32] + r[32] <= 0
 mccormick2[33]: - x[33] + r[33] <= 0
 mccormick2[34]: - x[34] + r[34] <= 0
 mccormick2[35]: - x[35] + r[35] <= 0
 mccormick2[36]: - x[36] + r[36] <= 0
 mccormick2[37]: - x[37] + r[37] <= 0
 mccormick2[38]: - x[38] + r[38] <= 0
 mccormick2[39]: - x[39] + r[39] <= 0
 mccormick2[40]: - x[40] + r[40] <= 0
 mccormick2[41]: - x[41] + r[41] <= 0
 mccormick2[42]: - x[42] + r[42] <= 0
 mccormick2[43]: - x[43] + r[43] <= 0
 mccormick2[44]: - x[44] + r[44] <= 0
 mccormick2[45]: - x[45] + r[45] <= 0
 mccormick2[46]: - x[46] + r[46] <= 0
 mccormick2[47]: - x[47] + r[47] <= 0
 mccormick2[48]: - x[48] + r[48] <= 0
 mccormick2[49]: - x[49] + r[49] <= 0
 mccormick2[50]: - x[50] + r[50] <= 0
 mccormick2[51]: - x[51] + r[51] <= 0
 mccormick2[52]: - x[52] + r[52] <= 0
 mccormick2[53]: - x[53] + r[53] <= 0
 mccormick2[54]: - x[54] + r[54] <= 0
 mccormick2[55]: - x[55] + r[55] <= 0
 mccormick2[56]: - x[56] + r[56] <= 0
 mccormick2[57]: - x[57] + r[57] <= 0
 mccormick2[58]: - x[58] + r[58] <= 0
 mccormick2[59]: - x[59] + r[59] <= 0
 mccormick2[60]: - x[60] + r[60] <= 0
 mccormick2[61]: - x[61] + r[61] <= 0
 mccormick2[62]: - x[62] + r[62] <= 0
 mccormick2[63]: - x[63] + r[63] <= 0
 mccormick2[64]: - x[64] + r[64] <= 0
 mccormick2[65]: - x[65] + r[65] <= 0
 mccormick2[66]: - x[66] + r[66] <= 0
 mccormick2[67]: - x[67] + r[67] <= 0
 mccormick2[68]: - x[68] + r[68] <= 0
 mccormick2[69]: - x[69] + r[69] <= 0
 mccormick2[70]: - x[70] + r[70] <= 0
 mccormick2[71]: - x[71] + r[71] <= 0
 mccormick2[72]: - x[72] + r[72] <= 0
 mccormick2[73]: - x[73] + r[73] <= 0
 mccormick2[74]: - x[74] + r[74] <= 0
 mccormick2[75]: - x[75] + r[75] <= 0
 mccormick2[76]: - x[76] + r[76] <= 0
 mccormick2[77]: - x[77] + r[77] <= 0
 mccormick2[78]: - x[78] + r[78] <= 0
 mccormick2[79]: - x[79] + r[79] <= 0
 mccormick3[0]: x[0] + u[0] - r[0] <= 1
 mccormick3[1]: x[1] + u[1] - r[1] <= 1
 mccormick3[2]: x[2] + u[2] - r[2] <= 1
 mccormick3[3]: x[3] + u[3] - r[3] <= 1
 mccormick3[4]: x[4] + u[4] - r[4] <= 1
 mccormick3[5]: x[5] + u[5] - r[5] <= 1
 mccormick3[6]: x[6] + u[6] - r[6] <= 1
 mccormick3[7]: x[7] + u[7] - r[7] <= 1
 mccormick3[8]: x[8] + u[8] - r[8] <= 1
 mccormick3[9]: x[9] + u[9] - r[9] <= 1
 mccormick3[10]: x[10] + u[10] - r[10] <= 1
 mccormick3[11]: x[11] + u[11] - r[11] <= 1
 mccormick3[12]: x[12] + u[12] - r[12] <= 1
 mccormick3[13]: x[13] + u[13] - r[13] <= 1
 mccormick3[14]: x[14] + u[14] - r[14] <= 1
 mccormick3[15]: x[15] + u[15] - r[15] <= 1
 mccormick3[16]: x[16] + u[16] - r[16] <= 1
 mccormick3[17]: x[17] + u[17] - r[17] <= 1
 mccormick3[18]: x[18] + u[18] - r[18] <= 1
 mccormick3[19]: x[19] + u[19] - r[19] <= 1
 mccormick3[20]: x[20] + u[20] - r[20] <= 1
 mccormick3[21]: x[21] + u[21] - r[21] <= 1
 mccormick3[22]: x[22] + u[22] - r[22] <= 1
 mccormick3[23]: x[23] + u[23] - r[23] <= 1
 mccormick3[24]: x[24] + u[24] - r[24] <= 1
 mccormick3[25]: x[25] + u[25] - r[25] <= 1
 mccormick3[26]: x[26] + u[26] - r[26] <= 1
 mccormick3[27]: x[27] + u[27] - r[27] <= 1
 mccormick3[28]: x[28] + u[28] - r[28] <= 1
 mccormick3[29]: x[29] + u[29] - r[29] <= 1
 mccormick3[30]: x[30] + u[30] - r[30] <= 1
 mccormick3[31]: x[31] + u[31] - r[31] <= 1
 mccormick3[32]: x[32] + u[32] - r[32] <= 1
 mccormick3[33]: x[33] + u[33] - r[33] <= 1
 mccormick3[34]: x[34] + u[34] - r[34] <= 1
 mccormick3[35]: x[35] + u[35] - r[35] <= 1
 mccormick3[36]: x[36] + u[36] - r[36] <= 1
 mccormick3[37]: x[37] + u[37] - r[37] <= 1
 mccormick3[38]: x[38] + u[38] - r[38] <= 1
 mccormick3[39]: x[39] + u[39] - r[39] <= 1
 mccormick3[40]: x[40] + u[40] - r[40] <= 1
 mccormick3[41]: x[41] + u[41] - r[41] <= 1
 mccormick3[42]: x[42] + u[42] - r[42] <= 1
 mccormick3[43]: x[43] + u[43] - r[43] <= 1
 mccormick3[44]: x[44] + u[44] - r[44] <= 1
 mccormick3[45]: x[45] + u[45] - r[45] <= 1
 mccormick3[46]: x[46] + u[46] - r[46] <= 1
 mccormick3[47]: x[47] + u[47] - r[47] <= 1
 mccormick3[48]: x[48] + u[48] - r[48] <= 1
 mccormick3[49]: x[49] + u[49] - r[49] <= 1
 mccormick3[50]: x[50] + u[50] - r[50] <= 1
 mccormick3[51]: x[51] + u[51] - r[51] <= 1
 mccormick3[52]: x[52] + u[52] - r[52] <= 1
 mccormick3[53]: x[53] + u[53] - r[53] <= 1
 mccormick3[54]: x[54] + u[54] - r[54] <= 1
 mccormick3[55]: x[55] + u[55] - r[55] <= 1
 mccormick3[56]: x[56] + u[56] - r[56] <= 1
 mccormick3[57]: x[57] + u[57] - r[57] <= 1
 mccormick3[58]: x[58] + u[58] - r[58] <= 1
 mccormick3[59]: x[59] + u[59] - r[59] <= 1
 mccormick3[60]: x[60] + u[60] - r[60] <= 1
 mccormick3[61]: x[61] + u[61] - r[61] <= 1
 mccormick3[62]: x[62] + u[62] - r[62] <= 1
 mccormick3[63]: x[63] + u[63] - r[63] <= 1
 mccormick3[64]: x[64] + u[64] - r[64] <= 1
 mccormick3[65]: x[65] + u[65] - r[65] <= 1
 mccormick3[66]: x[66] + u[66] - r[66] <= 1
 mccormick3[67]: x[67] + u[67] - r[67] <= 1
 mccormick3[68]: x[68] + u[68] - r[68] <= 1
 mccormick3[69]: x[69] + u[69] - r[69] <= 1
 mccormick3[70]: x[70] + u[70] - r[70] <= 1
 mccormick3[71]: x[71] + u[71] - r[71] <= 1
 mccormick3[72]: x[72] + u[72] - r[72] <= 1
 mccormick3[73]: x[73] + u[73] - r[73] <= 1
 mccormick3[74]: x[74] + u[74] - r[74] <= 1
 mccormick3[75]: x[75] + u[75] - r[75] <= 1
 mccormick3[76]: x[76] + u[76] - r[76] <= 1
 mccormick3[77]: x[77] + u[77] - r[77] <= 1
 mccormick3[78]: x[78] + u[78] - r[78] <= 1
 mccormick3[79]: x[79] + u[79] - r[79] <= 1
Bounds
Binaries
 x[0] x[1] x[2] x[3] x[4] x[5] x[6] x[7] x[8] x[9] x[10] x[11] x[12] x[13]
 x[14] x[15] x[16] x[17] x[18] x[19] x[20] x[21] x[22] x[23] x[24] x[25]
 x[26] x[27] x[28] x[29] x[30] x[31] x[32] x[33] x[34] x[35] x[36] x[37]
 x[38] x[39] x[40] x[41] x[42] x[43] x[44] x[45] x[46] x[47] x[48] x[49]
 x[50] x[51] x[52] x[53] x[54] x[55] x[56] x[57] x[58] x[59] x[60] x[61]
 x[62] x[63] x[64] x[65] x[66] x[67] x[68] x[69] x[70] x[71] x[72] x[73]
 x[74] x[75] x[76] x[77] x[78] x[79] u[0] u[1] u[2] u[3] u[4] u[5] u[6]
 u[7] u[8] u[9] u[10] u[11] u[12] u[13] u[14] u[15] u[16] u[17] u[18] u[19]
 u[20] u[21] u[22] u[23] u[24] u[25] u[26] u[27] u[28] u[29] u[30] u[31]
 u[32] u[33] u[34] u[35] u[36] u[37] u[38] u[39] u[40] u[41] u[42] u[43]
 u[44] u[45] u[46] u[47] u[48] u[49] u[50] u[51] u[52] u[53] u[54] u[55]
 u[56] u[57] u[58] u[59] u[60] u[61] u[62] u[63] u[64] u[65] u[66] u[67]
 u[68] u[69] u[70] u[71] u[72] u[73] u[74] u[75] u[76] u[77] u[78] u[79]
 r[0] r[1] r[2] r[3] r[4] r[5] r[6] r[7] r[8] r[9] r[10] r[11] r[12] r[13]
 r[14] r[15] r[16] r[17] r[18] r[19] r[20] r[21] r[22] r[23] r[24] r[25]
 r[26] r[27] r[28] r[29] r[30] r[31] r[32] r[33] r[34] r[35] r[36] r[37]
 r[38] r[39] r[40] r[41] r[42] r[43] r[44] r[45] r[46] r[47] r[48] r[49]
 r[50] r[51] r[52] r[53] r[54] r[55] r[56] r[57] r[58] r[59] r[60] r[61]
 r[62] r[63] r[64] r[65] r[66] r[67] r[68] r[69] r[70] r[71] r[72] r[73]
 r[74] r[75] r[76] r[77] r[78] r[79]
End
