instances/knapsack/discrete/knapsack_80_13.kp
3623
80
390

88 8.8 25
77 7.7 9
19 1.9 15
60 6.0 63
41 4.1 48
26 2.6 84
10 1.0 24
48 4.8 34
94 9.4 37
99 9.9 45
88 8.8 10
16 1.6 46
65 6.5 82
21 2.1 13
13 1.3 46
57 5.7 79
42 4.2 21
1 0.1 73
46 4.6 45
55 5.5 76
42 4.2 48
92 9.2 70
53 5.3 3
55 5.5 43
49 4.9 88
89 8.9 21
59 5.9 67
96 9.6 78
70 7.0 37
12 1.2 87
58 5.8 32
32 3.2 63
96 9.6 87
90 9.0 34
73 7.3 58
70 7.0 28
25 2.5 36
61 6.1 34
29 2.9 53
95 9.5 18
8 0.8 31
98 9.8 64
51 5.1 84
18 1.8 50
16 1.6 29
19 1.9 30
22 2.2 7
54 5.4 3
12 1.2 99
45 4.5 60
95 9.5 38
93 9.3 89
70 7.0 2
13 1.3 44
85 8.5 95
56 5.6 57
54 5.4 25
87 8.7 87
21 2.1 63
35 3.5 86
21 2.1 35
15 1.5 49
92 9.2 24
19 1.9 32
56 5.6 17
53 5.3 16
69 6.9 96
23 2.3 4
85 8.5 87
62 6.2 88
14 1.4 92
42 4.2 78
59 5.9 24
72 7.2 68
20 2.0 29
97 9.7 81
3 0.3 53
24 2.4 68
13 1.3 47
99 9.9 78

48609
437

[1.0655796647279236 1.063806572914905 4.4051544424022095 1.0484896948445135 5.006373971404091 3.612900749806626 0.9817683263505832 2.9071566098828603 3.0615427735414955 2.1076485682660775 4.62755245461535 4.622789091707007 2.9854895440995333 2.88481002566865 0.4501084856223512 5.428010556774811 2.123379354093349 0.23800929881438826 2.4199346533592307 1.9708433817142157 1.2615213195863273 4.397321890269968 2.146861631795601 1.7137830942547139 4.007238882018884 1.6983537165072786 2.033822534916446 2.5970430482165017 3.6849274169734434 0.2550359789156431 4.920723558651444 4.610445846812999 5.354305647461799 1.9523818556672798 0.0596838536280608 1.9467213771405578 0.07477780087148517 0.5503498595401789 0.548031923139106 0.1433910958717126 5.170143360657188 1.2749199195148355 5.40342031015713 2.051311253707299 2.44296673310665 3.9166687894966876 5.28683356471069 5.39004776098296 0.679243595241178 4.266211515183004 4.736944934620729 1.7914480591624244 3.903723383025676 0.5856421841798379 2.5942186862692393 5.412784895712832 2.5090359466941776 3.265226929890134 1.083431404677942 5.247438074114902 5.010189321964507 4.4950454094259715 3.681298308563251 4.2396912317565105 0.5305200165620435 1.4687027153923786 1.3302134904046823 3.575771679277681 3.7646015940459256 0.16582827893450394 3.9982558721667734 4.301141314404537 3.4401574170004183 4.209237764859067 0.7314045919878333 3.684902335469311 3.345020081676341 2.657166638432879 4.987680716091073 4.10587349622734]

[29 74 24 37 54 43 79 21 71 68 89 73 34 78 90 50 71 50 55 32 63 93 98 64 86 54 68 53 67 89 39 37 13 15 70 83 74 6 98 92 81 35 32 43 37 84 95 87 9 38 76 90 15 66 10 13 59 12 82 80 62 84 57 84 53 54 2 76 70 59 99 23 60 61 69 26 92 73 18 48]
